#######################
Slurm job id: 17497813_193
Running on machine: p31
Running cmd: /nfs/shared/static-builds/gurobi1202 SOFTMEMLIMIT=125 MIPFocus=1 Presolve=1 TimeLimit=500 seed=12 /nfs/models/miplib2010/k16x240.mps.bz2
#######################
Set parameter TimeLimit to value 500
Set parameter SoftMemLimit to value 125
Set parameter MIPFocus to value 1
Set parameter LogFile to value 1202-MIPFocus1-Presolve1-TimeLimit500-k16x240-2.log
Set parameter Presolve to value 1
Set parameter Seed to value 12
Using license file /opt/gurobi/gurobi.lic

Gurobi Optimizer version 12.0.2 build v12.0.2rc0 (linux64 - "Ubuntu 22.04.4 LTS")
Copyright (c) 2025, Gurobi Optimization, LLC

Read MPS format model from file /nfs/models/miplib2010/k16x240.mps.bz2
Reading time = 0.00 seconds
k16x240: 256 rows, 480 columns, 960 nonzeros

Using Gurobi shared library /nfs/shared/static-builds/gurobi1202

CPU model: Intel(R) Xeon(R) E-2388G CPU @ 3.20GHz, instruction set [SSE2|AVX|AVX2|AVX512]
Thread count: 8 physical cores, 16 logical processors, using up to 16 threads

Non-default parameters:
TimeLimit  500
SoftMemLimit  125
MIPFocus  1
Presolve  1
Seed  12

Optimize a model with 256 rows, 480 columns and 960 nonzeros
Model fingerprint: 0x4e80885f
Variable types: 240 continuous, 240 integer (240 binary)
Coefficient statistics:
  Matrix range     [1e+00, 1e+03]
  Objective range  [1e+00, 1e+03]
  Bounds range     [1e+00, 1e+03]
  RHS range        [4e+00, 4e+02]
Found heuristic solution: objective 19617.000000
Presolve time: 0.00s
Presolved: 256 rows, 480 columns, 960 nonzeros
Variable types: 240 continuous, 240 integer (240 binary)

Root relaxation: objective 2.769838e+03, 51 iterations, 0.00 seconds (0.00 work units)

    Nodes    |    Current Node    |     Objective Bounds      |     Work
 Expl Unexpl |  Obj  Depth IntInf | Incumbent    BestBd   Gap | It/Node Time

     0     0 2769.83800    0   14 19617.0000 2769.83800  85.9%     -    0s
H    0     0                    11359.000000 2769.83800  75.6%     -    0s
H    0     0                    11195.000000 2769.83800  75.3%     -    0s
H    0     0                    11088.000000 2769.83800  75.0%     -    0s
H    0     0                    11074.000000 8084.69631  27.0%     -    0s
     0     0 8084.69631    0   26 11074.0000 8084.69631  27.0%     -    0s
H    0     0                    10916.000000 8084.69631  25.9%     -    0s
     0     0 8528.16906    0   24 10916.0000 8528.16906  21.9%     -    0s
     0     0 8539.49533    0   34 10916.0000 8539.49533  21.8%     -    0s
     0     0 8548.03675    0   29 10916.0000 8548.03675  21.7%     -    0s
H    0     0                    10806.000000 8548.03675  20.9%     -    0s
     0     0 8792.64730    0   36 10806.0000 8792.64730  18.6%     -    0s
H    0     0                    10801.000000 8792.64730  18.6%     -    0s
H    0     0                    10784.000000 8792.64730  18.5%     -    0s
H    0     0                    10717.000000 8792.64730  18.0%     -    0s
     0     0 8804.10775    0   36 10717.0000 8804.10775  17.8%     -    0s
     0     0 8817.32385    0   30 10717.0000 8817.32385  17.7%     -    0s
     0     0 8821.48927    0   38 10717.0000 8821.48927  17.7%     -    0s
     0     0 8823.98646    0   36 10717.0000 8823.98646  17.7%     -    0s
     0     0 8825.19269    0   28 10717.0000 8825.19269  17.7%     -    0s
     0     0 8825.54131    0   33 10717.0000 8825.54131  17.6%     -    0s
     0     0 8902.14282    0   36 10717.0000 8902.14282  16.9%     -    0s
     0     0 8936.21778    0   41 10717.0000 8936.21778  16.6%     -    0s
     0     0 8970.49859    0   31 10717.0000 8970.49859  16.3%     -    0s
     0     0 8993.79350    0   42 10717.0000 8993.79350  16.1%     -    0s
     0     0 9002.42244    0   40 10717.0000 9002.42244  16.0%     -    0s
     0     0 9002.54921    0   42 10717.0000 9002.54921  16.0%     -    0s
     0     0 9066.84819    0   33 10717.0000 9066.84819  15.4%     -    0s
     0     2 9066.95850    0   33 10717.0000 9066.95850  15.4%     -    0s
H   29    55                    10681.000000 9143.55364  14.4%  44.4    0s
H   34    55                    10678.000000 9143.55364  14.4%  42.7    0s
H   94   120                    10674.000000 9143.55364  14.3%  33.9    0s
 32499 13492 10343.1389   34   14 10674.0000 9941.89704  6.86%  23.7    5s
 81060 28946     cutoff   44      10674.0000 10077.2873  5.59%  23.4   10s
 130411 40424 10347.0670   40   22 10674.0000 10146.4703  4.94%  22.6   15s
 177786 48926 10493.7625   39   26 10674.0000 10197.3237  4.47%  22.0   20s
 225083 54468 10444.3336   30   15 10674.0000 10240.9718  4.06%  21.9   25s
 276146 57877 10624.6448   30    6 10674.0000 10283.3289  3.66%  21.5   30s
 323759 57636     cutoff   39      10674.0000 10318.7920  3.33%  21.1   35s
 378990 54505 10471.6574   37   17 10674.0000 10361.2119  2.93%  20.8   40s
 430250 47074 10552.6610   58    2 10674.0000 10405.5438  2.52%  20.4   45s
 485643 30800 10621.5572   56   18 10674.0000 10465.7580  1.95%  20.2   50s

Cutting planes:
  Learned: 1
  Gomory: 5
  Lift-and-project: 19
  Cover: 9
  Implied bound: 7
  Dual implied bound: 41
  MIR: 175
  Flow cover: 294
  Flow path: 63
  Inf proof: 4
  Zero half: 1
  Network: 60
  Relax-and-lift: 4

Explored 538437 nodes (10563362 simplex iterations) in 54.37 seconds (58.90 work units)
Thread count was 16 (of 16 available processors)

Solution count 10: 10674 10678 10681 ... 11088

Optimal solution found (tolerance 1.00e-04)
Best objective 1.067400000000e+04, best bound 1.067400000000e+04, gap 0.0000%
